(set-info :Origin "This instance was generated by: BanditFuzz-- an RL fuzzer for SMT solvers" )
(set-info :Author "Joe Scott, Fed Mora, Vijay Ganesh" )
(set-info :Contact "Joe Scott, joseph.scott@uwaterloo.ca")
; solvers/z3.sh
; 	time => 0.15970253944396973
; 	answer => err
; solvers/bitwuzla.sh
; 	time => 0.11465239524841309
; 	answer => err
; solvers/cvc4.sh
; 	time => 0.17796611785888672
; 	answer => err
(set-logic QF_BV)
(declare-const bool_0 Bool)
(declare-const bool_1 Bool)
(declare-const bool_2 Bool)
(declare-const bool_3 Bool)
(declare-const bool_4 Bool)
(declare-const bv_0 (_ BitVec 8))
(declare-const bv_1 (_ BitVec 8))
(declare-const bv_2 (_ BitVec 8))
(declare-const bv_3 (_ BitVec 8))
(declare-const bv_4 (_ BitVec 8))
(assert (or (bvsgt (bvxor bv_2 bv_3) (bvudiv #x000000fb  #x0000000d )) (=> (bvuge #x00000071  bv_0) (bvugt bv_1 #x000000c3 ))))
(assert (bvsge (bvadd (bvshl #x0000007a  #x00000001 ) (bvudiv #x000000ac  bv_1)) (bvashr (bvxor bv_3 #x000000d8 ) (bvadd bv_0 bv_3))))
(assert (bvult (bvshl (bvxnor #x0000005f  #x0000004b ) (bvxnor #x000000c2  bv_1)) (bvand (bvand bv_3 #x00000046 ) (bvsdiv bv_1 bv_4))))
(assert (bvsgt (bvsmod (bvnand bv_1 #x00000088 ) (bvxnor #x000000f8  bv_0)) (bvor (bvsdiv bv_2 #x000000aa ) (bvsmod bv_2 #x000000c0 ))))
(assert (bvsge (bvnor (bvxor bv_2 bv_1) (bvnand #x000000e8  #x00000067 )) (bvudiv (bvurem bv_1 bv_3) (bvsdiv bv_0 #x0000007b ))))
(check-sat)
(exit)
